1000 100
37 289
164 149
482 128
70 113
224 315
150 350
186 267
89 415
295 381
433 221
355 424
458 267
87 115
213 55
313 307
423 305
411 185
321 269
439 288
375 491
339 161
425 303
129 120
187 52
377 215
234 310
67 24
423 329
2 24
368 254
33 246
200 127
493 55
354 208
479 45
220 258
142 228
440 12
302 315
49 30
267 271
434 319
360 62
471 380
471 127
202 205
356 40
311 283
373 316
189 276
164 373
114 186
342 196
454 412
214 53
15 52
111 6
473 359
32 185
380 450
74 244
97 152
442 24
43 345
164 51
241 279
440 161
444 451
362 295
355 227
486 180
266 98
137 335
261 65
333 402
431 256
166 359
201 73
444 154
190 105
167 469
99 263
430 447
482 341
214 251
198 495
450 325
218 50
233 383
69 380
323 167
170 394
358 358
350 66
481 476
431 365
93 218
98 430
69 310
277 497
